WARNING: for repeatability, setting FPU to use double precision
============================[ Problem Statistics ]=============================
|                                                                             |
|  Number of variables:           100                                         |
|  Number of clauses:             449                                         |
|  Parse time:                   0.00 s                                       |
|  Eliminated clauses:           0.00 Mb                                      |
|  Simplification time:          0.00 s                                       |
|                                                                             |
============================[ Search Statistics ]==============================
| Conflicts |          ORIGINAL         |          LEARNT          | Progress |
|           |    Vars  Clauses Literals |    Limit  Clauses Lit/Cl |          |
===============================================================================
|       100 |      99      448     1351 |      164      100      7 |  0.010 % |
|       250 |      99      448     1351 |      180      167      6 |  0.011 % |
===============================================================================
restarts              : 3
conflicts             : 375            (108131 /sec)
decisions             : 467            (0.00 % random) (134660 /sec)
propagations          : 8885           (2561995 /sec)
conflict literals     : 2247           (20.12 % deleted)
Memory used           : 13.00 MB
CPU time              : 0.003468 s

SATISFIABLE
